p tw 164 444
0 1
0 2
0 28
0 65
0 75
0 122
1 2
1 25
1 29
1 38
1 39
2 7
2 32
2 95
3 4
3 5
3 6
3 7
3 63
3 98
4 5
4 6
4 7
4 60
4 72
4 85
4 97
4 141
5 6
5 7
5 57
5 58
5 59
6 7
6 31
6 81
6 91
6 94
6 126
7 32
7 95
8 9
8 10
8 45
8 118
9 10
9 14
9 15
9 16
9 17
9 18
10 13
11 12
11 121
11 151
12 120
13 16
13 44
13 45
13 46
14 15
14 16
14 17
14 18
14 134
15 16
15 17
15 18
15 103
15 161
16 17
16 18
16 44
16 45
16 46
17 18
17 118
18 105
18 148
18 149
18 150
19 20
19 126
20 88
20 128
20 153
21 22
21 23
21 24
21 99
21 145
21 148
22 23
22 24
22 30
22 50
23 24
23 100
23 107
23 146
23 149
23 158
24 33
24 147
24 159
25 26
25 27
25 29
25 38
25 39
26 27
26 71
26 89
26 90
27 154
28 29
28 30
28 31
28 32
28 65
28 75
28 122
29 30
29 31
29 32
29 38
29 39
30 31
30 32
30 50
31 32
31 81
31 91
31 94
31 126
32 95
33 34
33 35
33 147
33 159
34 35
34 51
34 127
34 128
34 129
35 52
35 54
35 153
35 156
36 37
36 84
36 163
37 56
38 39
38 73
38 74
38 75
39 64
39 65
40 41
40 42
40 43
40 127
40 133
41 42
41 43
41 106
42 43
42 138
42 151
42 152
43 137
43 157
44 45
44 46
44 125
44 162
45 46
45 118
46 134
47 48
47 49
47 115
47 119
47 144
47 152
47 157
48 49
48 117
49 114
49 143
50 122
51 52
51 53
51 127
51 128
51 129
52 53
52 54
52 153
52 156
53 86
53 87
53 88
54 55
54 153
54 156
55 93
55 160
56 84
56 85
57 58
57 59
57 93
57 94
57 95
58 59
58 78
58 79
58 80
58 81
59 91
60 61
60 62
60 63
60 72
60 85
60 97
60 141
61 62
61 63
61 66
61 67
62 63
62 96
63 98
64 65
64 74
64 124
64 140
65 75
65 122
66 67
66 71
66 72
67 90
67 141
67 163
68 69
68 70
68 76
68 139
69 70
69 123
70 77
70 130
70 131
70 132
71 72
71 89
71 90
72 85
72 97
72 141
73 74
73 75
73 108
74 75
74 124
74 140
75 122
76 77
76 139
77 130
77 131
77 132
78 79
78 80
78 81
78 110
78 123
78 132
78 135
78 139
79 80
79 81
79 82
79 109
80 81
80 83
80 92
81 91
81 94
81 126
82 83
82 109
83 92
84 85
84 163
85 97
85 141
86 87
86 88
86 142
86 155
87 88
87 112
87 113
88 128
88 153
89 90
89 154
90 141
90 163
91 94
91 126
92 109
92 110
93 94
93 95
93 160
94 95
94 126
96 97
96 98
97 98
97 141
99 100
99 145
99 148
100 107
100 146
100 149
100 158
101 102
101 140
101 162
102 124
102 125
103 104
103 105
103 161
104 105
104 111
105 148
105 149
105 150
106 133
107 108
107 146
107 149
107 158
109 110
110 123
110 132
110 135
110 139
111 150
111 161
112 113
112 142
113 130
113 155
114 115
114 116
114 117
114 143
115 116
115 117
115 119
115 144
115 152
115 157
116 117
116 137
116 138
119 120
119 121
119 144
119 152
119 157
120 121
121 151
123 132
123 135
123 139
124 125
124 140
125 162
127 128
127 129
127 133
128 129
128 153
129 156
129 158
129 159
129 160
130 131
130 132
130 155
131 132
131 136
132 135
132 139
135 136
135 139
137 138
137 157
138 151
138 152
140 162
141 163
142 155
143 144
143 145
143 146
143 147
144 145
144 146
144 147
144 152
144 157
145 146
145 147
145 148
146 147
146 149
146 158
147 159
148 149
148 150
149 150
149 158
150 161
151 152
152 157
153 156
156 158
156 159
156 160
158 159
158 160
159 160
